NAME : ClusterId_102 
COMMENT : (Gillet and Johnson) 
TYPE : CVRP 
DIMENSION : 19 
EDGE_WEIGHT_TYPE : EUC_2D 
CAPACITY : 100 
NODE_COORD_SECTION 
102 55 35 
50 47 47 
34 65 55 
67 67 5 
39 60 12 
4 55 20 
24 65 35 
29 64 42 
54 57 29 
78 61 52 
12 50 35 
76 49 42 
25 65 20 
55 63 23 
79 57 48 
3 55 45 
77 53 43 
68 56 39 
80 56 37 
DEMAND_SECTION 
102 4370
50 13
34 14
67 25
39 31
4 19
24 3
29 9
54 18
78 3
12 19
76 13
25 6
55 2
79 23
3 13
77 14
68 36
80 6
DEPOT_SECTION 
102
 -1
EOF